sat
(:max-memory         18.52
 :memory             18.42
 :nlsat-arith-var    3
 :nlsat-atoms        12
 :nlsat-bool-var     2
 :nlsat-clauses      8
 :nlsat-conflicts    3
 :nlsat-decisions    1
 :nlsat-propagations 20
 :nlsat-stages       6
 :num-allocs         60628
 :rlimit-count       5863
 :time               0.01
 :total-time         0.02)
